(set-logic QF_LIA)
(declare-fun x0 () Int)
(declare-fun x1 () Int)
(declare-fun x2 () Int)
(declare-fun x3 () Int)
(declare-fun x4 () Int)
(declare-fun x5 () Int)
(declare-fun x6 () Int)
(declare-fun x7 () Int)
(declare-fun x8 () Int)
(declare-fun x9 () Int)
(declare-fun A0 () Bool)
(declare-fun A1 () Bool)
(declare-fun A2 () Bool)
(declare-fun A3 () Bool)
(declare-fun A4 () Bool)
(declare-fun A5 () Bool)
(declare-fun A6 () Bool)
(declare-fun A7 () Bool)
(declare-fun A8 () Bool)
(declare-fun A9 () Bool)
(assert (let ((.def_0 (not A0))) (let ((.def_1 (or .def_0 A7))) (let ((.def_2 (or A9 A9))) (let ((.def_3 (or .def_2 .def_1))) (let ((.def_4 (not A8))) (let ((.def_5 (and .def_4 A6))) (let ((.def_6 (* (- 1) x5))) (let ((.def_7 (< .def_6 (- 1)))) (let ((.def_8 (not .def_7))) (let ((.def_9 (not A4))) (let ((.def_10 (or .def_9 .def_8))) (let ((.def_11 (or .def_10 .def_5))) (let ((.def_12 (= .def_11 .def_3))) (let ((.def_13 (not .def_12))) (let ((.def_14 (not A3))) (let ((.def_15 (not A2))) (let ((.def_16 (or .def_15 .def_14))) (let ((.def_17 (not .def_16))) (let ((.def_18 (* (- 1) x4))) (let ((.def_19 (+ .def_18 .def_6))) (let ((.def_20 (< .def_19 1))) (let ((.def_21 (= A5 .def_20))) (let ((.def_22 (not .def_21))) (let ((.def_23 (or .def_22 .def_17))) (let ((.def_24 (* 1 x3))) (let ((.def_25 (* (- 1) x8))) (let ((.def_26 (+ .def_25 .def_24))) (let ((.def_27 (< .def_26 1))) (let ((.def_28 (and A0 .def_27))) (let ((.def_29 (and .def_4 .def_14))) (let ((.def_30 (not .def_29))) (let ((.def_31 (= .def_30 .def_28))) (let ((.def_32 (and .def_31 .def_23))) (let ((.def_33 (or .def_32 .def_13))) (let ((.def_34 (* (- 1) x6))) (let ((.def_35 (< .def_34 1))) (let ((.def_36 (not .def_35))) (let ((.def_37 (or A3 .def_36))) (let ((.def_38 (not .def_37))) (let ((.def_39 (* 1 x4))) (let ((.def_40 (* (- 1) x9))) (let ((.def_41 (+ .def_40 .def_39))) (let ((.def_42 (< .def_41 1))) (let ((.def_43 (not .def_42))) (let ((.def_44 (or A5 .def_43))) (let ((.def_45 (not .def_44))) (let ((.def_46 (and .def_45 .def_38))) (let ((.def_47 (* 1 x5))) (let ((.def_48 (* (- 1) x3))) (let ((.def_49 (+ .def_48 .def_47))) (let ((.def_50 (< .def_49 (- 1)))) (let ((.def_51 (not .def_50))) (let ((.def_52 (or .def_51 A8))) (let ((.def_53 (+ .def_47 .def_24))) (let ((.def_54 (< .def_53 (- 1)))) (let ((.def_55 (not .def_54))) (let ((.def_56 (and A9 .def_55))) (let ((.def_57 (not .def_56))) (let ((.def_58 (or .def_57 .def_52))) (let ((.def_59 (and .def_58 .def_46))) (let ((.def_60 (not .def_59))) (let ((.def_61 (* (- 1) x7))) (let ((.def_62 (+ .def_61 .def_18))) (let ((.def_63 (< .def_62 1))) (let ((.def_64 (* 1 x9))) (let ((.def_65 (< .def_64 1))) (let ((.def_66 (not .def_65))) (let ((.def_67 (= .def_66 .def_63))) (let ((.def_68 (< .def_6 1))) (let ((.def_69 (not .def_68))) (let ((.def_70 (or .def_69 A9))) (let ((.def_71 (and .def_70 .def_67))) (let ((.def_72 (* 1 x8))) (let ((.def_73 (< .def_72 (- 1)))) (let ((.def_74 (not .def_73))) (let ((.def_75 (= .def_74 .def_4))) (let ((.def_76 (not .def_75))) (let ((.def_77 (not A6))) (let ((.def_78 (* (- 1) x1))) (let ((.def_79 (+ .def_78 .def_24))) (let ((.def_80 (< .def_79 1))) (let ((.def_81 (or .def_80 .def_77))) (let ((.def_82 (not .def_81))) (let ((.def_83 (and .def_82 .def_76))) (let ((.def_84 (= .def_83 .def_71))) (let ((.def_85 (and .def_84 .def_60))) (let ((.def_86 (not .def_85))) (let ((.def_87 (and .def_86 .def_33))) (let ((.def_88 (not .def_87))) (let ((.def_89 (* 1 x1))) (let ((.def_90 (+ .def_89 .def_6))) (let ((.def_91 (< .def_90 1))) (let ((.def_92 (not .def_91))) (let ((.def_93 (or .def_92 .def_14))) (let ((.def_94 (not A5))) (let ((.def_95 (or .def_94 .def_7))) (let ((.def_96 (not .def_95))) (let ((.def_97 (or .def_96 .def_93))) (let ((.def_98 (* 1 x2))) (let ((.def_99 (+ .def_61 .def_98))) (let ((.def_100 (< .def_99 (- 1)))) (let ((.def_101 (and .def_94 .def_100))) (let ((.def_102 (* 1 x6))) (let ((.def_103 (+ .def_102 .def_39))) (let ((.def_104 (< .def_103 1))) (let ((.def_105 (* 1 x0))) (let ((.def_106 (+ .def_105 .def_40))) (let ((.def_107 (< .def_106 1))) (let ((.def_108 (or .def_107 .def_104))) (let ((.def_109 (not .def_108))) (let ((.def_110 (or .def_109 .def_101))) (let ((.def_111 (not .def_110))) (let ((.def_112 (or .def_111 .def_97))) (let ((.def_113 (< .def_105 1))) (let ((.def_114 (not .def_113))) (let ((.def_115 (not A9))) (let ((.def_116 (or .def_115 .def_114))) (let ((.def_117 (not .def_116))) (let ((.def_118 (< .def_40 1))) (let ((.def_119 (= .def_118 A1))) (let ((.def_120 (not .def_119))) (let ((.def_121 (or .def_120 .def_117))) (let ((.def_122 (+ .def_24 .def_102))) (let ((.def_123 (< .def_122 1))) (let ((.def_124 (not .def_123))) (let ((.def_125 (and .def_74 .def_124))) (let ((.def_126 (not .def_125))) (let ((.def_127 (< .def_48 1))) (let ((.def_128 (and .def_127 .def_0))) (let ((.def_129 (not .def_128))) (let ((.def_130 (or .def_129 .def_126))) (let ((.def_131 (not .def_130))) (let ((.def_132 (or .def_131 .def_121))) (let ((.def_133 (not .def_132))) (let ((.def_134 (or .def_133 .def_112))) (let ((.def_135 (< .def_98 (- 1)))) (let ((.def_136 (not .def_135))) (let ((.def_137 (= A2 .def_136))) (let ((.def_138 (* (- 1) x0))) (let ((.def_139 (+ .def_138 .def_47))) (let ((.def_140 (< .def_139 1))) (let ((.def_141 (not A1))) (let ((.def_142 (and .def_141 .def_140))) (let ((.def_143 (or .def_142 .def_137))) (let ((.def_144 (and A3 .def_4))) (let ((.def_145 (or .def_135 .def_9))) (let ((.def_146 (not .def_145))) (let ((.def_147 (and .def_146 .def_144))) (let ((.def_148 (not .def_147))) (let ((.def_149 (and .def_148 .def_143))) (let ((.def_150 (< .def_25 1))) (let ((.def_151 (or .def_65 .def_150))) (let ((.def_152 (and A8 A5))) (let ((.def_153 (not .def_152))) (let ((.def_154 (and .def_153 .def_151))) (let ((.def_155 (< .def_48 (- 1)))) (let ((.def_156 (not .def_155))) (let ((.def_157 (not A7))) (let ((.def_158 (and .def_157 .def_156))) (let ((.def_159 (and A4 .def_94))) (let ((.def_160 (not .def_159))) (let ((.def_161 (and .def_160 .def_158))) (let ((.def_162 (not .def_161))) (let ((.def_163 (or .def_162 .def_154))) (let ((.def_164 (and .def_163 .def_149))) (let ((.def_165 (or .def_164 .def_134))) (let ((.def_166 (not .def_165))) (let ((.def_167 (or .def_166 .def_88))) (let ((.def_168 (not .def_167))) (let ((.def_169 (+ .def_105 .def_98))) (let ((.def_170 (< .def_169 (- 1)))) (let ((.def_171 (or .def_170 .def_94))) (let ((.def_172 (or .def_94 .def_115))) (let ((.def_173 (not .def_172))) (let ((.def_174 (or .def_173 .def_171))) (let ((.def_175 (not .def_174))) (let ((.def_176 (< .def_138 1))) (let ((.def_177 (not .def_176))) (let ((.def_178 (+ .def_64 .def_138))) (let ((.def_179 (< .def_178 (- 1)))) (let ((.def_180 (or .def_179 .def_177))) (let ((.def_181 (not .def_180))) (let ((.def_182 (and A3 A2))) (let ((.def_183 (or .def_182 .def_181))) (let ((.def_184 (and .def_183 .def_175))) (let ((.def_185 (< .def_98 1))) (let ((.def_186 (= .def_9 .def_185))) (let ((.def_187 (not .def_186))) (let ((.def_188 (not .def_127))) (let ((.def_189 (and .def_188 A2))) (let ((.def_190 (not .def_189))) (let ((.def_191 (or .def_190 .def_187))) (let ((.def_192 (< .def_25 (- 1)))) (let ((.def_193 (not .def_192))) (let ((.def_194 (= .def_94 .def_193))) (let ((.def_195 (+ .def_138 .def_98))) (let ((.def_196 (< .def_195 (- 1)))) (let ((.def_197 (and .def_196 .def_141))) (let ((.def_198 (not .def_197))) (let ((.def_199 (and .def_198 .def_194))) (let ((.def_200 (or .def_199 .def_191))) (let ((.def_201 (and .def_200 .def_184))) (let ((.def_202 (not .def_201))) (let ((.def_203 (* 1 x7))) (let ((.def_204 (+ .def_105 .def_203))) (let ((.def_205 (< .def_204 (- 1)))) (let ((.def_206 (not .def_205))) (let ((.def_207 (and .def_73 .def_206))) (let ((.def_208 (not .def_207))) (let ((.def_209 (+ .def_78 .def_25))) (let ((.def_210 (< .def_209 (- 1)))) (let ((.def_211 (not .def_210))) (let ((.def_212 (or .def_211 A9))) (let ((.def_213 (or .def_212 .def_208))) (let ((.def_214 (not .def_213))) (let ((.def_215 (or A6 .def_193))) (let ((.def_216 (and .def_141 A7))) (let ((.def_217 (not .def_216))) (let ((.def_218 (and .def_217 .def_215))) (let ((.def_219 (and .def_218 .def_214))) (let ((.def_220 (not .def_219))) (let ((.def_221 (< .def_40 (- 1)))) (let ((.def_222 (not .def_221))) (let ((.def_223 (or .def_222 A6))) (let ((.def_224 (not .def_223))) (let ((.def_225 (+ .def_18 .def_25))) (let ((.def_226 (< .def_225 (- 1)))) (let ((.def_227 (not .def_226))) (let ((.def_228 (or .def_227 A9))) (let ((.def_229 (not .def_228))) (let ((.def_230 (or .def_229 .def_224))) (let ((.def_231 (not .def_230))) (let ((.def_232 (< .def_203 (- 1)))) (let ((.def_233 (or .def_66 .def_232))) (let ((.def_234 (+ .def_24 .def_78))) (let ((.def_235 (< .def_234 1))) (let ((.def_236 (not .def_235))) (let ((.def_237 (and A9 .def_236))) (let ((.def_238 (or .def_237 .def_233))) (let ((.def_239 (not .def_238))) (let ((.def_240 (or .def_239 .def_231))) (let ((.def_241 (= .def_240 .def_220))) (let ((.def_242 (not .def_241))) (let ((.def_243 (and .def_242 .def_202))) (let ((.def_244 (< .def_89 1))) (let ((.def_245 (+ .def_64 .def_105))) (let ((.def_246 (< .def_245 1))) (let ((.def_247 (not .def_246))) (let ((.def_248 (or .def_247 .def_244))) (let ((.def_249 (not .def_248))) (let ((.def_250 (and A3 .def_94))) (let ((.def_251 (and .def_250 .def_249))) (let ((.def_252 (or .def_77 A2))) (let ((.def_253 (not .def_252))) (let ((.def_254 (+ .def_138 .def_40))) (let ((.def_255 (< .def_254 1))) (let ((.def_256 (not .def_255))) (let ((.def_257 (and .def_222 .def_256))) (let ((.def_258 (and .def_257 .def_253))) (let ((.def_259 (not .def_258))) (let ((.def_260 (or .def_259 .def_251))) (let ((.def_261 (+ .def_78 .def_18))) (let ((.def_262 (< .def_261 (- 1)))) (let ((.def_263 (or A6 .def_262))) (let ((.def_264 (not .def_263))) (let ((.def_265 (or A3 A0))) (let ((.def_266 (and .def_265 .def_264))) (let ((.def_267 (< .def_78 (- 1)))) (let ((.def_268 (not .def_267))) (let ((.def_269 (and .def_127 .def_268))) (let ((.def_270 (+ .def_18 .def_34))) (let ((.def_271 (< .def_270 (- 1)))) (let ((.def_272 (not .def_271))) (let ((.def_273 (+ .def_34 .def_25))) (let ((.def_274 (< .def_273 1))) (let ((.def_275 (or .def_274 .def_272))) (let ((.def_276 (or .def_275 .def_269))) (let ((.def_277 (not .def_276))) (let ((.def_278 (and .def_277 .def_266))) (let ((.def_279 (not .def_278))) (let ((.def_280 (or .def_279 .def_260))) (let ((.def_281 (not .def_280))) (let ((.def_282 (+ .def_48 .def_39))) (let ((.def_283 (< .def_282 1))) (let ((.def_284 (not .def_283))) (let ((.def_285 (= .def_0 .def_284))) (let ((.def_286 (* (- 1) x2))) (let ((.def_287 (+ .def_286 .def_102))) (let ((.def_288 (< .def_287 1))) (let ((.def_289 (not .def_288))) (let ((.def_290 (or A3 .def_289))) (let ((.def_291 (or .def_290 .def_285))) (let ((.def_292 (or A2 A0))) (let ((.def_293 (not .def_292))) (let ((.def_294 (or A9 A1))) (let ((.def_295 (not .def_294))) (let ((.def_296 (or .def_295 .def_293))) (let ((.def_297 (= .def_296 .def_291))) (let ((.def_298 (not .def_297))) (let ((.def_299 (and .def_262 .def_0))) (let ((.def_300 (not .def_299))) (let ((.def_301 (+ .def_39 .def_286))) (let ((.def_302 (< .def_301 (- 1)))) (let ((.def_303 (+ .def_48 .def_105))) (let ((.def_304 (< .def_303 1))) (let ((.def_305 (not .def_304))) (let ((.def_306 (and .def_305 .def_302))) (let ((.def_307 (not .def_306))) (let ((.def_308 (or .def_307 .def_300))) (let ((.def_309 (not .def_308))) (let ((.def_310 (or A0 .def_94))) (let ((.def_311 (and .def_115 A7))) (let ((.def_312 (not .def_311))) (let ((.def_313 (or .def_312 .def_310))) (let ((.def_314 (and .def_313 .def_309))) (let ((.def_315 (not .def_314))) (let ((.def_316 (and .def_315 .def_298))) (let ((.def_317 (or .def_316 .def_281))) (let ((.def_318 (not .def_317))) (let ((.def_319 (or .def_318 .def_243))) (let ((.def_320 (not .def_319))) (let ((.def_321 (or .def_320 .def_168))) (let ((.def_322 (and .def_4 A9))) (let ((.def_323 (not .def_322))) (let ((.def_324 (< .def_105 (- 1)))) (let ((.def_325 (not .def_324))) (let ((.def_326 (= A4 .def_325))) (let ((.def_327 (not .def_326))) (let ((.def_328 (or .def_327 .def_323))) (let ((.def_329 (not .def_328))) (let ((.def_330 (and A2 .def_256))) (let ((.def_331 (< .def_39 1))) (let ((.def_332 (not .def_331))) (let ((.def_333 (or .def_115 .def_332))) (let ((.def_334 (not .def_333))) (let ((.def_335 (or .def_334 .def_330))) (let ((.def_336 (and .def_335 .def_329))) (let ((.def_337 (not .def_336))) (let ((.def_338 (+ .def_25 .def_203))) (let ((.def_339 (< .def_338 1))) (let ((.def_340 (not .def_339))) (let ((.def_341 (or .def_340 .def_211))) (let ((.def_342 (+ .def_203 .def_102))) (let ((.def_343 (< .def_342 (- 1)))) (let ((.def_344 (not .def_343))) (let ((.def_345 (and .def_344 .def_8))) (let ((.def_346 (and .def_345 .def_341))) (let ((.def_347 (< .def_24 1))) (let ((.def_348 (< .def_78 1))) (let ((.def_349 (or .def_348 .def_347))) (let ((.def_350 (< .def_282 (- 1)))) (let ((.def_351 (not .def_350))) (let ((.def_352 (not .def_170))) (let ((.def_353 (and .def_352 .def_351))) (let ((.def_354 (not .def_353))) (let ((.def_355 (or .def_354 .def_349))) (let ((.def_356 (not .def_355))) (let ((.def_357 (or .def_356 .def_346))) (let ((.def_358 (not .def_357))) (let ((.def_359 (and .def_358 .def_337))) (let ((.def_360 (+ .def_89 .def_102))) (let ((.def_361 (< .def_360 (- 1)))) (let ((.def_362 (not .def_361))) (let ((.def_363 (= .def_362 .def_157))) (let ((.def_364 (+ .def_24 .def_203))) (let ((.def_365 (< .def_364 1))) (let ((.def_366 (and A6 .def_365))) (let ((.def_367 (and .def_366 .def_363))) (let ((.def_368 (or A0 .def_188))) (let ((.def_369 (< .def_89 (- 1)))) (let ((.def_370 (+ .def_102 .def_18))) (let ((.def_371 (< .def_370 (- 1)))) (let ((.def_372 (and .def_371 .def_369))) (let ((.def_373 (not .def_372))) (let ((.def_374 (and .def_373 .def_368))) (let ((.def_375 (not .def_374))) (let ((.def_376 (and .def_375 .def_367))) (let ((.def_377 (not .def_376))) (let ((.def_378 (+ .def_40 .def_6))) (let ((.def_379 (< .def_378 (- 1)))) (let ((.def_380 (and .def_379 .def_222))) (let ((.def_381 (not .def_380))) (let ((.def_382 (+ .def_105 .def_102))) (let ((.def_383 (< .def_382 (- 1)))) (let ((.def_384 (+ .def_6 .def_61))) (let ((.def_385 (< .def_384 (- 1)))) (let ((.def_386 (not .def_385))) (let ((.def_387 (or .def_386 .def_383))) (let ((.def_388 (not .def_387))) (let ((.def_389 (or .def_388 .def_381))) (let ((.def_390 (< .def_72 1))) (let ((.def_391 (or .def_390 A4))) (let ((.def_392 (and .def_36 .def_4))) (let ((.def_393 (not .def_392))) (let ((.def_394 (and .def_393 .def_391))) (let ((.def_395 (not .def_394))) (let ((.def_396 (and .def_395 .def_389))) (let ((.def_397 (or .def_396 .def_377))) (let ((.def_398 (= .def_397 .def_359))) (let ((.def_399 (not .def_398))) (let ((.def_400 (+ .def_138 .def_24))) (let ((.def_401 (< .def_400 1))) (let ((.def_402 (not .def_401))) (let ((.def_403 (+ .def_72 .def_40))) (let ((.def_404 (< .def_403 1))) (let ((.def_405 (not .def_404))) (let ((.def_406 (and .def_405 .def_402))) (let ((.def_407 (or .def_331 .def_115))) (let ((.def_408 (or .def_407 .def_406))) (let ((.def_409 (< .def_47 (- 1)))) (let ((.def_410 (= A1 .def_409))) (let ((.def_411 (and .def_4 .def_77))) (let ((.def_412 (not .def_411))) (let ((.def_413 (or .def_412 .def_410))) (let ((.def_414 (or .def_413 .def_408))) (let ((.def_415 (+ .def_286 .def_72))) (let ((.def_416 (< .def_415 (- 1)))) (let ((.def_417 (= A0 .def_416))) (let ((.def_418 (+ .def_34 .def_138))) (let ((.def_419 (< .def_418 1))) (let ((.def_420 (= A7 .def_419))) (let ((.def_421 (not .def_420))) (let ((.def_422 (and .def_421 .def_417))) (let ((.def_423 (+ .def_102 .def_203))) (let ((.def_424 (< .def_423 1))) (let ((.def_425 (not .def_424))) (let ((.def_426 (and .def_54 .def_425))) (let ((.def_427 (not .def_426))) (let ((.def_428 (< .def_61 1))) (let ((.def_429 (not .def_428))) (let ((.def_430 (and .def_429 .def_14))) (let ((.def_431 (and .def_430 .def_427))) (let ((.def_432 (not .def_431))) (let ((.def_433 (or .def_432 .def_422))) (let ((.def_434 (or .def_433 .def_414))) (let ((.def_435 (+ .def_6 .def_105))) (let ((.def_436 (< .def_435 1))) (let ((.def_437 (and A5 .def_436))) (let ((.def_438 (or .def_15 A8))) (let ((.def_439 (not .def_438))) (let ((.def_440 (and .def_439 .def_437))) (let ((.def_441 (not .def_440))) (let ((.def_442 (or A9 .def_115))) (let ((.def_443 (+ .def_61 .def_89))) (let ((.def_444 (< .def_443 (- 1)))) (let ((.def_445 (and .def_325 .def_444))) (let ((.def_446 (not .def_445))) (let ((.def_447 (or .def_446 .def_442))) (let ((.def_448 (= .def_447 .def_441))) (let ((.def_449 (not .def_448))) (let ((.def_450 (or .def_170 .def_77))) (let ((.def_451 (not .def_450))) (let ((.def_452 (+ .def_203 .def_64))) (let ((.def_453 (< .def_452 (- 1)))) (let ((.def_454 (or .def_453 .def_114))) (let ((.def_455 (not .def_454))) (let ((.def_456 (or .def_455 .def_451))) (let ((.def_457 (not .def_456))) (let ((.def_458 (< .def_203 1))) (let ((.def_459 (not .def_458))) (let ((.def_460 (and .def_156 .def_459))) (let ((.def_461 (+ .def_102 .def_105))) (let ((.def_462 (< .def_461 (- 1)))) (let ((.def_463 (not .def_462))) (let ((.def_464 (and .def_463 .def_244))) (let ((.def_465 (not .def_464))) (let ((.def_466 (or .def_465 .def_460))) (let ((.def_467 (or .def_466 .def_457))) (let ((.def_468 (not .def_467))) (let ((.def_469 (or .def_468 .def_449))) (let ((.def_470 (not .def_469))) (let ((.def_471 (and .def_470 .def_434))) (let ((.def_472 (not .def_471))) (let ((.def_473 (or .def_472 .def_399))) (let ((.def_474 (not .def_473))) (let ((.def_475 (and A4 .def_115))) (let ((.def_476 (not .def_475))) (let ((.def_477 (+ .def_72 .def_89))) (let ((.def_478 (< .def_477 1))) (let ((.def_479 (or .def_232 .def_478))) (let ((.def_480 (not .def_479))) (let ((.def_481 (= .def_480 .def_476))) (let ((.def_482 (not .def_369))) (let ((.def_483 (or .def_4 .def_482))) (let ((.def_484 (not .def_483))) (let ((.def_485 (+ .def_24 .def_18))) (let ((.def_486 (< .def_485 (- 1)))) (let ((.def_487 (not .def_486))) (let ((.def_488 (or .def_487 A2))) (let ((.def_489 (and .def_488 .def_484))) (let ((.def_490 (and .def_489 .def_481))) (let ((.def_491 (not .def_490))) (let ((.def_492 (or A6 .def_0))) (let ((.def_493 (not .def_492))) (let ((.def_494 (and A5 A2))) (let ((.def_495 (not .def_494))) (let ((.def_496 (and .def_495 .def_493))) (let ((.def_497 (< .def_26 (- 1)))) (let ((.def_498 (or A1 .def_497))) (let ((.def_499 (not .def_498))) (let ((.def_500 (not .def_118))) (let ((.def_501 (and .def_429 .def_500))) (let ((.def_502 (and .def_501 .def_499))) (let ((.def_503 (or .def_502 .def_496))) (let ((.def_504 (and .def_503 .def_491))) (let ((.def_505 (and .def_14 A4))) (let ((.def_506 (or A8 A5))) (let ((.def_507 (not .def_506))) (let ((.def_508 (or .def_507 .def_505))) (let ((.def_509 (not .def_508))) (let ((.def_510 (< .def_18 1))) (let ((.def_511 (not .def_510))) (let ((.def_512 (and .def_511 A6))) (let ((.def_513 (+ .def_72 .def_105))) (let ((.def_514 (< .def_513 1))) (let ((.def_515 (not .def_514))) (let ((.def_516 (and .def_157 .def_515))) (let ((.def_517 (= .def_516 .def_512))) (let ((.def_518 (and .def_517 .def_509))) (let ((.def_519 (not .def_518))) (let ((.def_520 (+ .def_39 .def_102))) (let ((.def_521 (< .def_520 1))) (let ((.def_522 (not .def_521))) (let ((.def_523 (or .def_522 A1))) (let ((.def_524 (= .def_14 .def_127))) (let ((.def_525 (and .def_524 .def_523))) (let ((.def_526 (or .def_141 .def_4))) (let ((.def_527 (not .def_526))) (let ((.def_528 (and .def_115 A8))) (let ((.def_529 (not .def_528))) (let ((.def_530 (or .def_529 .def_527))) (let ((.def_531 (not .def_530))) (let ((.def_532 (and .def_531 .def_525))) (let ((.def_533 (and .def_532 .def_519))) (let ((.def_534 (= .def_533 .def_504))) (let ((.def_535 (not .def_534))) (let ((.def_536 (< .def_102 1))) (let ((.def_537 (or .def_14 .def_536))) (let ((.def_538 (or .def_94 .def_4))) (let ((.def_539 (not .def_538))) (let ((.def_540 (and .def_539 .def_537))) (let ((.def_541 (not .def_540))) (let ((.def_542 (+ .def_48 .def_34))) (let ((.def_543 (< .def_542 (- 1)))) (let ((.def_544 (not .def_543))) (let ((.def_545 (and .def_544 A2))) (let ((.def_546 (+ .def_98 .def_25))) (let ((.def_547 (< .def_546 1))) (let ((.def_548 (not .def_547))) (let ((.def_549 (and .def_14 .def_548))) (let ((.def_550 (and .def_549 .def_545))) (let ((.def_551 (and .def_550 .def_541))) (let ((.def_552 (and .def_118 A8))) (let ((.def_553 (not .def_552))) (let ((.def_554 (or A3 A5))) (let ((.def_555 (not .def_554))) (let ((.def_556 (= .def_555 .def_553))) (let ((.def_557 (not .def_556))) (let ((.def_558 (+ .def_39 .def_24))) (let ((.def_559 (< .def_558 1))) (let ((.def_560 (not .def_559))) (let ((.def_561 (< .def_34 (- 1)))) (let ((.def_562 (not .def_561))) (let ((.def_563 (and .def_562 .def_560))) (let ((.def_564 (and .def_0 A8))) (let ((.def_565 (or .def_564 .def_563))) (let ((.def_566 (= .def_565 .def_557))) (let ((.def_567 (not .def_566))) (let ((.def_568 (and .def_567 .def_551))) (let ((.def_569 (not .def_568))) (let ((.def_570 (< .def_18 (- 1)))) (let ((.def_571 (and .def_332 .def_570))) (let ((.def_572 (not .def_571))) (let ((.def_573 (and .def_14 .def_267))) (let ((.def_574 (not .def_573))) (let ((.def_575 (and .def_574 .def_572))) (let ((.def_576 (not .def_575))) (let ((.def_577 (and .def_4 .def_115))) (let ((.def_578 (+ .def_72 .def_6))) (let ((.def_579 (< .def_578 (- 1)))) (let ((.def_580 (not .def_579))) (let ((.def_581 (+ .def_47 .def_34))) (let ((.def_582 (< .def_581 (- 1)))) (let ((.def_583 (and .def_582 .def_580))) (let ((.def_584 (or .def_583 .def_577))) (let ((.def_585 (not .def_584))) (let ((.def_586 (or .def_585 .def_576))) (let ((.def_587 (or A9 .def_9))) (let ((.def_588 (< .def_139 (- 1)))) (let ((.def_589 (and .def_73 .def_588))) (let ((.def_590 (not .def_589))) (let ((.def_591 (or .def_590 .def_587))) (let ((.def_592 (not .def_591))) (let ((.def_593 (< .def_24 (- 1)))) (let ((.def_594 (not .def_593))) (let ((.def_595 (and .def_594 A9))) (let ((.def_596 (or A6 A6))) (let ((.def_597 (not .def_596))) (let ((.def_598 (or .def_597 .def_595))) (let ((.def_599 (and .def_598 .def_592))) (let ((.def_600 (not .def_599))) (let ((.def_601 (or .def_600 .def_586))) (let ((.def_602 (not .def_601))) (let ((.def_603 (or .def_602 .def_569))) (let ((.def_604 (or .def_603 .def_535))) (let ((.def_605 (or .def_604 .def_474))) (let ((.def_606 (not .def_605))) (let ((.def_607 (or .def_606 .def_321))) (let ((.def_608 (not .def_607))) (let ((.def_609 (<= x9 1))) (let ((.def_610 (<= 0 x9))) (let ((.def_611 (<= x8 1))) (let ((.def_612 (<= 0 x8))) (let ((.def_613 (<= x7 1))) (let ((.def_614 (<= 0 x7))) (let ((.def_615 (<= x6 1))) (let ((.def_616 (<= 0 x6))) (let ((.def_617 (<= x5 1))) (let ((.def_618 (<= 0 x5))) (let ((.def_619 (<= x4 1))) (let ((.def_620 (<= 0 x4))) (let ((.def_621 (<= x3 1))) (let ((.def_622 (<= 0 x3))) (let ((.def_623 (<= x2 1))) (let ((.def_624 (<= 0 x2))) (let ((.def_625 (<= x1 1))) (let ((.def_626 (<= 0 x1))) (let ((.def_627 (<= x0 1))) (let ((.def_628 (<= 0 x0))) (let ((.def_629 (and .def_628 .def_627 .def_626 .def_625 .def_624 .def_623 .def_622 .def_621 .def_620 .def_619 .def_618 .def_617 .def_616 .def_615 .def_614 .def_613 .def_612 .def_611 .def_610 .def_609 .def_608))) .def_629)))))))))))))))))))))))))))))))))))))))))))))))))))))))))))))))))))))))))))))))))))))))))))))))))))))))))))))))))))))))))))))))))))))))))))))))))))))))))))))))))))))))))))))))))))))))))))))))))))))))))))))))))))))))))))))))))))))))))))))))))))))))))))))))))))))))))))))))))))))))))))))))))))))))))))))))))))))))))))))))))))))))))))))))))))))))))))))))))))))))))))))))))))))))))))))))))))))))))))))))))))))))))))))))))))))))))))))))))))))))))))))))))))))))))))))))))))))))))))))))))))))))))))))))))))))))))))))))))))))))))))))))))))))))))))))))))))))))))))))))))))))))))))))))))))))))))))))))))))))))))))))))))))))))))))))))))))))))
(check-sat)
